09-routing/solutions/XSH-n20-k4-50.opt.sol
Route #1: 2 12 6 11 17 4 9
Route #2: 19 15 14 16
Route #3: 8 1 10 18
Route #4: 7 3 13 20 5
Cost 627
